Maximize
  2.5 x_hardwood + 3 x_vinyl_planks
Subject To
  c1: x_hardwood >= 20,000
  c2: x_vinyl_planks >= 10,000
  c3: x_hardwood + x_vinyl_planks >= 60,000
  c4: x_hardwood <= 50,000
  c5: x_vinyl_planks <= 30,000
End